N = 11;
H = 5;
T = 2;

avail = array3d(1..N, 1..H, 1..T, [1, 9, 3, 3, 7, 9, 0, 5, 8, 5, 2, 6, 4, 7, 0, 10, 5, 0, 3, 7, 2, 8, 6, 1, 6, 1, 2, 0, 2, 1, 10, 8, 7, 8, 4, 1, 4, 9, 2, 5, 0, 9, 0, 8, 4, 6, 3, 10, 5, 7, 4, 7, 8, 5, 6, 3, 8, 1, 10, 0, 6, 8, 6, 4, 2, 8, 3, 8, 10, 8, 8, 1, 6, 7, 2, 0, 7, 9, 9, 5, 7, 3, 1, 9, 0, 3, 2, 6, 7, 3, 1, 7, 8, 4, 10, 8, 8, 6, 4, 8, 0, 6, 5, 8, 0, 7, 4, 0, 0, 10]);

r = array2d(1..H, 1..T, [2, 1, 2, 4, 3, 6, 3, 4, 0, 3]);
